6253
1113
1791
13685
8628
5670
6427
1407
8504
14167
12513
2094
4884
10708
8692
778
14222
1595
4563
15553
13439
6690
4862
10619
15516
9234
6876
11963
4813
989
9393
2656
4353
11607
6453
8114
14819
10556
13419
6791
3136
3424
9315
2965
13471
12671
1771
1203
6650
18257
3406
13024
15641
3093
9721
24192
9736
11310
15373
15082
12694
11862
21139
9416
1532
2213
7426
17960
3209
19043
11398
10711
21673
15853
22897
6398
3920
19141
3418
15644
16950
10600
13178
13812
16563
9762
7478
10418
24928
10142
5841
11842
4689
1757
15703
14979
10114
23119
22878
